10J3M/DAT/10J3MNNA-15.dat
10 3
31.0493 964.059
27.507 756.635
30.8773 953.4077
22.908 524.7765
36.332 1320.0142
22.1137 489.0157
13.8465 191.7256
28.5434 814.7257
19.4913 379.9108
35.6936 1274.0331
7668.3033