10J3M/SOL/10J3MNNA-15.sol
solution status: optimal solution found
objective value:                     89.4540333333333
x#1#2                                               1 	(obj:0)
x#2#1                                               1 	(obj:0)
x#3#1                               0.339914219615488 	(obj:0)
x#3#2                               0.660085780384512 	(obj:0)
x#4#1                                               1 	(obj:0)
x#5#3                                               1 	(obj:0)
x#6#2                                               1 	(obj:0)
x#7#3                                               1 	(obj:0)
x#8#1                                               1 	(obj:0)
x#9#3                                               1 	(obj:0)
x#10#2                              0.445720427938529 	(obj:0)
x#10#3                              0.554279572061471 	(obj:0)
z                                    89.4540333333333 	(obj:1)
